;; Mutation-Based Equivalence Benchmark
;; Source:     AutomatArk / instance00843.smt2
;; Mutations:  star_to_plus
;; Status:     sat
;;
;; Original regex vs mutated regex
;; Equivalence check: unsat ⟺ L(R1) = L(R2)

(set-info :smt-lib-version 2.6)
(set-info :category "mutation")
(set-info :status sat)
(set-logic QF_S)

(declare-const x String)

;; R1: original
;; R2: mutated (star_to_plus)
(assert
  (str.in_re x
    (re.union (re.inter (re.++ (str.to_re "/logo.png?") (re.opt (re.++ (str.to_re "sv=") ((_ re.loop 1 3) (re.range "0" "9")))) (str.to_re "&tq=") (re.* re.allchar) (str.to_re "SoSEU/smiU\u{a}")) (re.comp (re.++ (str.to_re "/logo.png?") (re.opt (re.++ (str.to_re "sv=") ((_ re.loop 1 3) (re.range "0" "9")))) (str.to_re "&tq=") (re.+ re.allchar) (str.to_re "SoSEU/smiU\u{a}")))) (re.inter (re.comp (re.++ (str.to_re "/logo.png?") (re.opt (re.++ (str.to_re "sv=") ((_ re.loop 1 3) (re.range "0" "9")))) (str.to_re "&tq=") (re.* re.allchar) (str.to_re "SoSEU/smiU\u{a}"))) (re.++ (str.to_re "/logo.png?") (re.opt (re.++ (str.to_re "sv=") ((_ re.loop 1 3) (re.range "0" "9")))) (str.to_re "&tq=") (re.+ re.allchar) (str.to_re "SoSEU/smiU\u{a}"))))))

(check-sat)
(exit)
